(set-info :smt-lib-version 2.6)
(set-logic QF_SLIA)
(set-info :source |
Generated by: Denghang Hu, Rongcheng Li, Zhilin Wu, Philipp Rummer, and Oliver Markgraf,
Generated on: 20240411,
Generator: ReDoSHunter4SymExec,
Application: ReDoS attack detection,
Target solver: Ostrich, Z3str3, CVC5
Description: The dataset is generated by the tool ReDoSHunter4SymExec
 at https://github.com/SuperMaxine/ReDoSHunter4SymExec, to test whether attacks for a regular expression exist.  
|)
(set-info :license "https://creativecommons.org/licenses/by/4.0/")
(set-info :category "industrial")
(set-info :status unsat)

(declare-const result String)
(declare-const attack String)
(declare-const prefix RegLan)
(declare-const infix RegLan)
(declare-const postfix RegLan)
(declare-const postfixs String)

(assert (str.in_re attack (re.++ prefix ((_ re.loop 10000 10000) infix) postfix)))
(assert (= prefix 
     (re.++  (re.++  (re.++  (str.to_re "\u{44}") (re.++  (str.to_re "\u{61}")  (str.to_re "\u{72}"))) (re.++  (re.++  (str.to_re "\u{77}") (re.++  (str.to_re "\u{69}")  (str.to_re "\u{6e}"))) (re.++  (str.to_re "\u{5c}\u{2f}") (re.++  (str.to_re "\u{39}") re.allchar)))) (re.+ (re.range "0" "9") ))
))
(assert (= infix 
        (re.inter (re.+ (re.range "0" "9") )  (re.++ (re.+ (re.range "0" "9") ) (re.* re.allchar )) (re.* re.allchar ) )
))
(assert (= postfix 
        (re.inter  (re.inter  (re.++  (str.to_re "\u{30}") (re.*  (re.union (re.union (str.to_re "\u{09}") (str.to_re "\u{0a}") (str.to_re "\u{0d}") (str.to_re " ")) (re.inter re.allchar (re.comp (re.union (str.to_re "\u{09}") (str.to_re "\u{0a}") (str.to_re "\u{0d}") (str.to_re " "))))) )) (re.comp  (re.inter (re.* re.allchar )  (re.++   (re.union (re.union (str.to_re "\u{09}") (str.to_re "\u{0a}") (str.to_re "\u{0d}") (str.to_re " ")) (re.inter re.allchar (re.comp (re.union (str.to_re "\u{09}") (str.to_re "\u{0a}") (str.to_re "\u{0d}") (str.to_re " "))))) (re.*   (re.union (re.union (str.to_re "\u{09}") (str.to_re "\u{0a}") (str.to_re "\u{0d}") (str.to_re " ")) (re.inter re.allchar (re.comp (re.union (str.to_re "\u{09}") (str.to_re "\u{0a}") (str.to_re "\u{0d}") (str.to_re " "))))) )))))  (re.inter  (re.++  (str.to_re "\u{30}") (re.*  (re.union (re.union (str.to_re "\u{09}") (str.to_re "\u{0a}") (str.to_re "\u{0d}") (str.to_re " ")) (re.inter re.allchar (re.comp (re.union (str.to_re "\u{09}") (str.to_re "\u{0a}") (str.to_re "\u{0d}") (str.to_re " "))))) )) (re.comp  (re.++  (re.inter (re.* re.allchar )  (re.++   (re.union (re.union (str.to_re "\u{09}") (str.to_re "\u{0a}") (str.to_re "\u{0d}") (str.to_re " ")) (re.inter re.allchar (re.comp (re.union (str.to_re "\u{09}") (str.to_re "\u{0a}") (str.to_re "\u{0d}") (str.to_re " "))))) (re.*   (re.union (re.union (str.to_re "\u{09}") (str.to_re "\u{0a}") (str.to_re "\u{0d}") (str.to_re " ")) (re.inter re.allchar (re.comp (re.union (str.to_re "\u{09}") (str.to_re "\u{0a}") (str.to_re "\u{0d}") (str.to_re " "))))) )))  (re.++  (str.to_re "\u{5c}\u{28}") (re.++  (re.union  (re.++  (str.to_re "\u{69}") (re.++  (str.to_re "\u{33}") (re.++  (str.to_re "\u{38}")  (str.to_re "\u{36}")))) (re.union  (re.++  (str.to_re "\u{78}") (re.++  (str.to_re "\u{38}") (re.++  (str.to_re "\u{36}") (re.++  (str.to_re "\u{5f}") (re.++  (str.to_re "\u{36}")  (str.to_re "\u{34}"))))))  (re.++  (str.to_re "\u{50}") (re.++  (str.to_re "\u{6f}") (re.++  (str.to_re "\u{77}") (re.++  (str.to_re "\u{65}") (re.++  (str.to_re "\u{72}") (re.++  (str.to_re "\u{20}") (re.++  (str.to_re "\u{4d}") (re.++  (str.to_re "\u{61}") (re.++  (str.to_re "\u{63}") (re.++  (str.to_re "\u{69}") (re.++  (str.to_re "\u{6e}") (re.++  (str.to_re "\u{74}") (re.++  (str.to_re "\u{6f}") (re.++  (str.to_re "\u{73}")  (str.to_re "\u{68}")))))))))))))))))  (str.to_re "\u{5c}\u{29}")))))) )
))
(assert (str.in_re postfixs postfix))
(assert (>= (str.len postfixs) 1))
(assert (= result (str.++ attack postfixs)))
(check-sat)
(exit)
